p edge 82 126
e 1 2
e 1 3
e 1 4
e 1 5
e 1 6
e 1 11
e 1 16
e 1 17
e 1 18
e 1 27
e 1 28
e 1 29
e 1 30
e 1 31
e 1 32
e 1 33
e 1 38
e 1 39
e 1 40
e 1 41
e 1 42
e 1 43
e 1 44
e 1 45
e 1 46
e 1 51
e 1 52
e 1 53
e 1 54
e 1 55
e 1 56
e 1 57
e 1 58
e 1 59
e 1 73
e 1 74
e 1 75
e 1 76
e 1 77
e 1 78
e 1 79
e 1 80
e 1 81
e 1 82
e 2 3
e 2 4
e 2 5
e 2 6
e 2 16
e 2 17
e 2 18
e 2 27
e 2 28
e 2 29
e 2 30
e 2 31
e 2 32
e 2 33
e 2 38
e 2 39
e 2 40
e 2 41
e 2 42
e 2 43
e 2 44
e 2 45
e 2 46
e 2 51
e 2 52
e 2 53
e 2 54
e 2 55
e 2 56
e 2 57
e 2 58
e 2 59
e 2 68
e 2 73
e 2 74
e 2 75
e 2 76
e 2 77
e 2 78
e 2 79
e 2 80
e 2 81
e 2 82
e 6 80
e 7 8
e 7 9
e 7 10
e 9 10
e 11 82
e 12 13
e 12 14
e 12 15
e 14 15
e 19 20
e 19 21
e 19 22
e 21 22
e 23 24
e 23 25
e 23 26
e 25 26
e 30 73
e 34 35
e 34 36
e 34 37
e 36 37
e 47 48
e 47 49
e 47 50
e 49 50
e 60 61
e 60 62
e 60 63
e 62 63
e 64 65
e 64 66
e 64 67
e 66 67
e 69 70
e 69 71
e 69 72
e 71 72
